column=11;
row=11;
Board=[|0,0,0,0,0,0,0,2,3,0,10|0,0,0,0,0,0,0,0,0,0,0|0,0,0,0,0,11,5,0,0,0,0|3,0,0,9,2,0,0,0,0,0,0|0,2,0,0,8,10,0,9,0,0,7|0,0,10,0,7,0,6,5,0,0,4|0,0,0,5,0,0,8,0,1,2,3|11,0,0,0,0,7,0,0,4,0,0|0,4,9,0,10,0,0,0,0,8,6|5,0,0,0,1,0,7,0,9,0,0|0,8,0,6,0,0,3,7,2,0,5|];
horizontal=[|0,0,0,0,1,0,0,1,0,0|0,0,0,0,1,0,0,0,0,0|0,1,1,0,0,0,0,0,0,0|0,0,0,0,0,0,0,0,0,0|0,1,0,0,0,0,0,0,0,0|0,0,0,0,1,0,1,0,0,1|0,1,0,1,0,1,0,0,1,1|0,0,0,1,0,0,0,0,1,0|0,0,0,0,0,0,0,0,1,0|1,0,0,0,0,0,0,1,0,0|0,0,0,0,0,0,0,0,0,0|];
vertical=[|0,0,0,0,0,0,0,0,0,0,1|0,0,1,0,1,0,0,0,0,0,0|0,0,0,0,0,0,0,0,0,0,0|0,0,0,0,0,0,0,0,0,0,0|0,1,0,0,1,0,0,0,0,0,0|0,0,1,0,1,1,0,1,0,1,1|0,0,0,0,0,0,0,0,0,0,0|0,1,0,0,1,0,1,0,0,0,0|0,0,0,1,0,0,0,1,0,0,0|0,0,0,0,0,0,0,0,0,0,0|];
